DIMACS2
10 112 81 52 110 40 59 107 62 146 42
p edge 160 446
e 0 44 1.0
e 0 152 1.0
e 1 25 4.0
e 1 147 1.0
e 2 109 1.0
e 2 73 2.0
e 3 22 1.0
e 3 50 2.0
e 4 130 2.0
e 4 131 2.0
e 5 87 1.0
e 5 115 1.0
e 6 133 1.0
e 6 123 1.0
e 7 86 3.0
e 7 53 2.0
e 8 54 1.0
e 8 46 1.0
e 9 14 2.0
e 9 75 1.0
e 10 123 1.0
e 10 110 48.0
e 11 109 1.0
e 11 151 1.0
e 12 46 3.0
e 12 96 1.0
e 13 145 1.0
e 13 113 2.0
e 14 138 1.0
e 14 46 1.0
e 15 118 2.0
e 15 19 1.0
e 16 33 1.0
e 16 132 1.0
e 17 16 1.0
e 17 49 3.0
e 18 2 1.0
e 18 11 1.0
e 19 49 2.0
e 19 52 32.0
e 20 75 1.0
e 20 95 1.0
e 21 63 1.0
e 21 91 1.0
e 22 109 1.0
e 22 63 1.0
e 23 14 1.0
e 23 39 2.0
e 24 14 1.0
e 24 32 1.0
e 25 14 6.0
e 25 70 3.0
e 26 92 1.0
e 26 32 1.0
e 27 97 1.0
e 27 116 1.0
e 28 113 3.0
e 28 52 26.0
e 29 47 1.0
e 29 151 1.0
e 30 22 1.0
e 30 91 1.0
e 31 2 1.0
e 31 83 1.0
e 32 95 1.0
e 32 7 1.0
e 33 102 1.0
e 33 143 2.0
e 34 140 1.0
e 34 137 1.0
e 35 46 1.0
e 35 5 1.0
e 36 147 1.0
e 36 20 1.0
e 37 1 1.0
e 37 49 1.0
e 38 119 1.0
e 38 64 1.0
e 39 55 1.0
e 39 48 1.0
e 40 147 45.0
e 40 55 28.0
e 40 141 36.0
e 40 8 37.0
e 40 62 30.0
e 40 38 45.0
e 40 117 20.0
e 40 12 35.0
e 40 85 40.0
e 40 83 19.0
e 40 65 20.0
e 40 3 44.0
e 40 56 13.0
e 40 52 28.0
e 40 84 25.0
e 41 88 1.0
e 41 68 2.0
e 42 32 2.0
e 42 75 43.0
e 42 65 49.0
e 42 94 40.0
e 42 73 24.0
e 42 142 43.0
e 42 79 8.0
e 42 67 36.0
e 42 110 41.0
e 42 43 5.0
e 42 69 6.0
e 42 84 22.0
e 42 12 28.0
e 42 99 17.0
e 42 93 37.0
e 42 154 14.0
e 42 120 30.0
e 43 74 2.0
e 43 125 1.0
e 44 85 1.0
e 44 61 2.0
e 45 8 1.0
e 45 153 1.0
e 46 92 1.0
e 46 147 1.0
e 47 35 1.0
e 47 121 1.0
e 48 6 1.0
e 48 40 26.0
e 49 46 1.0
e 49 105 2.0
e 50 132 3.0
e 50 11 2.0
e 51 144 2.0
e 51 21 1.0
e 52 99 31.0
e 52 24 20.0
e 52 143 30.0
e 52 120 48.0
e 52 104 11.0
e 52 128 39.0
e 52 58 30.0
e 52 157 28.0
e 52 122 41.0
e 52 108 8.0
e 52 100 44.0
e 53 28 1.0
e 53 61 1.0
e 54 77 1.0
e 54 23 2.0
e 55 43 1.0
e 55 158 1.0
e 56 81 48.0
e 56 82 5.0
e 57 157 1.0
e 57 97 1.0
e 58 51 1.0
e 58 105 2.0
e 59 95 25.0
e 59 9 14.0
e 59 66 26.0
e 59 149 16.0
e 59 62 4.0
e 59 124 47.0
e 59 42 28.0
e 59 134 33.0
e 59 40 36.0
e 59 79 11.0
e 59 48 22.0
e 59 71 25.0
e 59 54 17.0
e 59 50 36.0
e 59 114 33.0
e 59 111 11.0
e 60 41 1.0
e 60 28 2.0
e 61 127 1.0
e 61 65 1.0
e 62 45 13.0
e 62 136 27.0
e 62 143 32.0
e 62 48 13.0
e 62 51 39.0
e 62 80 43.0
e 62 4 31.0
e 62 154 22.0
e 62 74 43.0
e 62 42 27.0
e 62 33 18.0
e 62 99 38.0
e 62 52 48.0
e 62 142 41.0
e 63 98 1.0
e 63 57 1.0
e 64 68 1.0
e 64 122 3.0
e 65 116 1.0
e 65 101 2.0
e 66 92 1.0
e 66 29 1.0
e 67 91 1.0
e 67 39 1.0
e 68 60 1.0
e 68 106 1.0
e 69 34 1.0
e 69 128 1.0
e 70 126 1.0
e 70 117 1.0
e 71 6 3.0
e 71 60 5.0
e 72 55 2.0
e 72 120 2.0
e 73 52 2.0
e 73 89 1.0
e 74 34 2.0
e 74 139 1.0
e 75 18 1.0
e 75 78 1.0
e 76 152 1.0
e 76 71 5.0
e 77 55 2.0
e 77 72 1.0
e 78 36 1.0
e 78 141 1.0
e 79 76 1.0
e 79 60 3.0
e 80 4 1.0
e 80 5 1.0
e 81 79 29.0
e 81 122 32.0
e 81 159 7.0
e 81 134 16.0
e 81 86 1.0
e 81 37 43.0
e 81 144 22.0
e 81 124 20.0
e 81 145 13.0
e 81 127 20.0
e 81 90 11.0
e 81 52 16.0
e 81 130 16.0
e 81 100 5.0
e 81 138 43.0
e 82 66 1.0
e 82 10 1.0
e 83 113 1.0
e 83 15 1.0
e 84 45 1.0
e 84 80 1.0
e 85 113 1.0
e 85 68 1.0
e 86 109 1.0
e 86 35 1.0
e 87 50 1.0
e 87 72 1.0
e 88 156 1.0
e 88 60 1.0
e 89 14 1.0
e 89 28 1.0
e 90 67 1.0
e 90 121 1.0
e 91 95 1.0
e 91 31 1.0
e 92 78 1.0
e 92 24 1.0
e 93 37 3.0
e 93 75 1.0
e 94 77 1.0
e 94 17 1.0
e 95 110 22.0
e 95 156 1.0
e 96 40 28.0
e 96 1 1.0
e 97 88 1.0
e 97 70 1.0
e 98 119 1.0
e 98 126 1.0
e 99 70 1.0
e 99 132 3.0
e 100 60 2.0
e 100 93 1.0
e 101 123 1.0
e 101 53 1.0
e 102 1 2.0
e 102 156 1.0
e 103 45 1.0
e 103 133 1.0
e 104 140 1.0
e 104 132 1.0
e 105 133 2.0
e 105 152 1.0
e 106 92 1.0
e 106 152 1.0
e 107 125 4.0
e 107 44 37.0
e 107 29 40.0
e 107 39 14.0
e 107 54 3.0
e 107 112 10.0
e 107 52 46.0
e 107 154 34.0
e 107 87 7.0
e 107 74 5.0
e 107 105 29.0
e 107 3 31.0
e 107 56 42.0
e 107 110 45.0
e 107 89 10.0
e 107 114 36.0
e 107 146 33.0
e 108 133 1.0
e 108 151 1.0
e 109 56 3.0
e 109 21 1.0
e 110 116 14.0
e 110 52 35.0
e 110 101 32.0
e 110 96 42.0
e 110 57 34.0
e 110 13 24.0
e 110 76 3.0
e 110 15 27.0
e 110 106 5.0
e 110 59 7.0
e 110 40 49.0
e 110 111 7.0
e 110 112 9.0
e 111 22 1.0
e 111 73 2.0
e 112 102 4.0
e 112 25 38.0
e 112 130 25.0
e 112 135 32.0
e 112 131 31.0
e 112 57 19.0
e 112 81 38.0
e 112 146 38.0
e 112 62 30.0
e 112 136 34.0
e 112 19 17.0
e 112 59 24.0
e 112 148 33.0
e 112 149 24.0
e 112 150 5.0
e 113 137 1.0
e 113 136 2.0
e 114 137 2.0
e 114 26 2.0
e 115 155 1.0
e 115 93 2.0
e 116 2 2.0
e 116 18 3.0
e 117 82 1.0
e 117 118 1.0
e 118 30 1.0
e 118 41 1.0
e 119 118 1.0
e 119 75 1.0
e 120 27 2.0
e 120 62 41.0
e 121 147 1.0
e 121 53 2.0
e 122 13 1.0
e 122 22 1.0
e 123 102 1.0
e 123 7 1.0
e 124 90 1.0
e 124 126 1.0
e 125 129 1.0
e 125 20 1.0
e 126 75 1.0
e 126 68 1.0
e 127 154 2.0
e 127 108 1.0
e 128 21 1.0
e 128 104 1.0
e 129 78 1.0
e 129 70 1.0
e 130 98 1.0
e 130 59 39.0
e 131 70 1.0
e 131 85 1.0
e 132 95 1.0
e 132 58 1.0
e 133 77 1.0
e 133 69 1.0
e 134 98 1.0
e 134 114 1.0
e 135 122 1.0
e 135 139 1.0
e 136 121 1.0
e 136 44 1.0
e 137 158 1.0
e 137 72 1.0
e 138 119 1.0
e 138 144 1.0
e 139 12 1.0
e 139 79 1.0
e 140 33 2.0
e 140 70 1.0
e 141 98 1.0
e 141 91 1.0
e 142 100 1.0
e 142 64 1.0
e 143 38 2.0
e 143 133 1.0
e 144 36 1.0
e 144 47 1.0
e 145 135 1.0
e 145 119 1.0
e 146 71 28.0
e 146 125 28.0
e 146 81 45.0
e 146 31 37.0
e 146 148 20.0
e 146 96 42.0
e 146 110 7.0
e 146 150 17.0
e 146 155 41.0
e 146 59 26.0
e 146 159 22.0
e 146 42 11.0
e 146 62 2.0
e 146 0 49.0
e 147 115 1.0
e 147 52 18.0
e 148 2 1.0
e 148 88 1.0
e 149 103 1.0
e 149 72 1.0
e 150 13 3.0
e 150 44 2.0
e 151 56 3.0
e 151 87 1.0
e 152 137 1.0
e 153 15 2.0
e 153 155 2.0
e 154 81 7.0
e 154 153 1.0
e 155 23 2.0
e 155 94 1.0
e 156 103 1.0
e 156 61 1.0
e 157 129 1.0
e 157 84 1.0
e 158 97 1.0
e 158 4 1.0
e 159 138 1.0
e 159 35 1.0
